\ Model example_3
\ LP format - for model browsing. Use MPS format to capture full model detail.
Maximize
  3 x[0] + 5 x[1]
Subject To
 c0: x[0] <= 4
 c1: 2 x[1] <= 12
 c2: 3 x[0] + 2 x[1] <= 18
Bounds
End
